
Gurobi 10.0.1 (win64) logging started Sun Oct  8 10:18:44 2023

Set parameter LogFile to value "./results//log/FMS_12_makespan_heurFalse.log"
Gurobi Optimizer version 10.0.1 build v10.0.1rc0 (win64)

CPU model: AMD Ryzen 7 3700X 8-Core Processor, instruction set [SSE2|AVX|AVX2]
Thread count: 8 physical cores, 16 logical processors, using up to 16 threads

Optimize a model with 322 rows, 304 columns and 1316 nonzeros
Model fingerprint: 0x48ffd892
Variable types: 0 continuous, 304 integer (264 binary)
Coefficient statistics:
  Matrix range     [1e+00, 1e+07]
  Objective range  [1e+00, 1e+00]
  Bounds range     [1e+00, 1e+00]
  RHS range        [1e+00, 3e+07]
Presolve removed 46 rows and 159 columns
Presolve time: 0.01s
Presolved: 276 rows, 145 columns, 1228 nonzeros
Variable types: 0 continuous, 145 integer (106 binary)
Found heuristic solution: objective 11327.000000
Found heuristic solution: objective 10884.000000
Found heuristic solution: objective 8298.0000000

Root relaxation: objective 4.000000e+03, 57 iterations, 0.00 seconds (0.00 work units)

    Nodes    |    Current Node    |     Objective Bounds      |     Work
 Expl Unexpl |  Obj  Depth IntInf | Incumbent    BestBd   Gap | It/Node Time

     0     0 4000.00000    0   14 8298.00000 4000.00000  51.8%     -    0s
H    0     0                    6694.0000000 4000.00000  40.2%     -    0s
H    0     0                    6569.0000000 4000.00000  39.1%     -    0s
H    0     0                    6456.0000000 4022.00000  37.7%     -    0s
H    0     0                    6215.0000000 4022.00000  35.3%     -    0s
     0     0 4022.00000    0   16 6215.00000 4022.00000  35.3%     -    0s
H    0     0                    6214.0000000 4022.00000  35.3%     -    0s
H    0     0                    6150.0000000 4022.00000  34.6%     -    0s
H    0     0                    6053.0000000 4022.00000  33.6%     -    0s
     0     0 4022.00138    0   20 6053.00000 4022.00138  33.6%     -    0s
     0     0 4028.00000    0   28 6053.00000 4028.00000  33.5%     -    0s
H    0     0                    5872.0000000 4028.00000  31.4%     -    0s
     0     0 4028.00000    0   24 5872.00000 4028.00000  31.4%     -    0s
     0     0 4028.00000    0   31 5872.00000 4028.00000  31.4%     -    0s
     0     0 4028.00000    0   31 5872.00000 4028.00000  31.4%     -    0s
     0     0 4029.42000    0   28 5872.00000 4029.42000  31.4%     -    0s
     0     0 4029.77876    0   29 5872.00000 4029.77876  31.4%     -    0s
     0     0 4029.88589    0   35 5872.00000 4029.88589  31.4%     -    0s
     0     0 4031.33854    0   32 5872.00000 4031.33854  31.3%     -    0s
     0     0 4031.33854    0   32 5872.00000 4031.33854  31.3%     -    0s
     0     0 4031.35671    0   32 5872.00000 4031.35671  31.3%     -    0s
     0     0 4032.00000    0   32 5872.00000 4032.00000  31.3%     -    0s
     0     0 4032.00000    0   32 5872.00000 4032.00000  31.3%     -    0s
     0     0 4034.35671    0   32 5872.00000 4034.35671  31.3%     -    0s
H    0     0                    5437.0000000 4039.87177  25.7%     -    0s
     0     0 4039.87177    0   32 5437.00000 4039.87177  25.7%     -    0s
     0     0 4040.18958    0   32 5437.00000 4040.18958  25.7%     -    0s
H    0     0                    5415.0000000 4043.00000  25.3%     -    0s
     0     0 4043.18958    0   32 5415.00000 4043.18958  25.3%     -    0s
     0     0 4043.92357    0   31 5415.00000 4043.92357  25.3%     -    0s
     0     2 4043.92357    0   31 5415.00000 4043.92357  25.3%     -    0s
*11680  3336              51    5348.0000000 4701.32911  12.1%   2.8    1s
*14824  3593              45    5332.0000000 4744.00000  11.0%   3.0    1s
*73549  4264              46    5308.0000000 5176.00000  2.49%   4.0    4s

Cutting planes:
  Gomory: 4
  Cover: 1
  Implied bound: 1
  MIR: 3

Explored 90868 nodes (381375 simplex iterations) in 4.80 seconds (0.97 work units)
Thread count was 16 (of 16 available processors)

Solution count 10: 5308 5332 5348 ... 6215

Optimal solution found (tolerance 1.00e-04)
Best objective 5.308000000000e+03, best bound 5.308000000000e+03, gap 0.0000%
Warning: constraint name "precedence between 0,0 to 0,1 if x_[0,0,0,1,3]=0, i.e. 0,1 before 0,0" has a space
Warning: constraint name "precedence between 0,0 to 0,1 if x_[0,0,0,1,3]=0, i.e. 0,1 before 0,0" has a space
Warning: default constraint names used to write mps file
